c feather-lastfm-social: A social network of LastFM users which was collected from the public API in March 2020.  https://snap.stanford.edu/data/feather-lastfm-social.html
p edge 227 234
e 1 19
e 2 199
e 3 203
e 4 26
e 4 157
e 4 13
e 4 178
e 4 151
e 4 35
e 4 142
e 4 74
e 4 155
e 4 90
e 5 27
e 6 85
e 7 83
e 8 116
e 8 168
e 8 19
e 9 198
e 10 126
e 11 18
e 12 223
e 12 134
e 12 60
e 12 39
e 14 59
e 14 137
e 14 217
e 15 27
e 16 198
e 17 194
e 17 27
e 17 40
e 18 63
e 18 217
e 19 201
e 19 84
e 20 145
e 20 109
e 20 132
e 20 205
e 20 166
e 20 200
e 20 154
e 20 45
e 21 36
e 21 119
e 22 211
e 23 70
e 23 62
e 23 131
e 24 27
e 25 83
e 26 182
e 26 185
e 26 61
e 26 128
e 27 69
e 27 141
e 27 85
e 27 163
e 27 149
e 27 84
e 27 184
e 27 112
e 27 224
e 28 105
e 29 211
e 30 188
e 31 186
e 31 168
e 32 100
e 33 183
e 34 104
e 35 133
e 35 150
e 36 140
e 36 208
e 37 118
e 38 42
e 38 147
e 38 122
e 38 88
e 39 87
e 40 190
e 40 168
e 41 88
e 41 131
e 41 118
e 41 210
e 42 49
e 43 132
e 44 203
e 45 205
e 45 108
e 46 110
e 47 157
e 48 65
e 48 226
e 48 152
e 48 227
e 48 188
e 50 109
e 51 129
e 52 207
e 53 199
e 53 153
e 53 226
e 54 103
e 55 117
e 55 200
e 55 57
e 56 171
e 56 168
e 58 138
e 59 93
e 59 211
e 59 199
e 59 91
e 59 110
e 62 89
e 64 198
e 66 92
e 67 87
e 67 214
e 67 222
e 68 159
e 68 98
e 69 99
e 71 185
e 72 114
e 72 166
e 72 180
e 73 173
e 73 91
e 74 162
e 74 125
e 74 126
e 75 211
e 76 117
e 77 208
e 78 166
e 79 106
e 79 125
e 80 82
e 80 215
e 81 216
e 83 218
e 83 160
e 84 121
e 84 135
e 85 129
e 85 215
e 86 177
e 87 101
e 87 131
e 87 98
e 87 117
e 91 107
e 91 179
e 92 158
e 92 104
e 92 146
e 92 214
e 92 216
e 92 209
e 93 181
e 94 211
e 95 183
e 96 215
e 96 103
e 97 199
e 98 187
e 100 138
e 102 132
e 103 213
e 103 195
e 103 216
e 104 115
e 104 207
e 104 206
e 105 199
e 107 125
e 109 120
e 109 138
e 111 132
e 113 168
e 114 221
e 116 191
e 116 170
e 116 164
e 117 124
e 121 192
e 123 211
e 126 220
e 127 166
e 127 148
e 128 139
e 130 198
e 130 140
e 132 176
e 135 140
e 136 186
e 138 143
e 139 182
e 144 208
e 155 204
e 156 227
e 157 174
e 158 193
e 161 168
e 164 175
e 165 167
e 166 188
e 166 202
e 167 212
e 167 209
e 168 213
e 168 170
e 169 203
e 170 193
e 170 189
e 170 197
e 172 208
e 177 218
e 181 203
e 183 200
e 188 219
e 190 193
e 191 196
e 192 198
e 197 218
e 210 225
l 114
t 71 77
